0 0 0 0
0 1 0 0
0 2 2 0
0 3 0 0
0 4 2 7
0 5 2 6
0 6 0 5
0 7 0 6
0 8 0 7
0 9 0 5
0 10 2 9
0 11 0 6
0 12 2 13
0 13 2 9
0 14 0 20
0 15 2 9
0 16 1 14
0 17 0 13
0 18 2 9
0 19 0 20
0 20 1 17
0 21 1 16
0 22 0 20
0 23 0 21
0 24 1 25
0 25 2 21
0 26 2 24
0 27 1 21
0 28 0 32
0 29 0 30
0 30 0 29
0 31 0 34
